WARNING: for repeatability, setting FPU to use double precision
 -----------------------------------------------------------------------------------------------------------------------
|                                 manysat2.0    4 thread(s) on 8 core(s)                                                |
 -----------------------------------------------------------------------------------------------------------------------
 ===============================================[ Problem Statistics ]==================================================
|                                                                                                                       |
|  Number of cores:                 4                                                                                   |
|  Number of variables:        138917                                                                                   |
|  Number of clauses:         4678755                                                                                   |
|  Parse time:                   2.11 s                                                                                 |
|                                                                                                                       |
 ==============================================[ Search Statistics ]====================================================
|   Thread  | Conflicts |          ORIGINAL         |          LEARNT          |  exported  / imported      |  Progress |
|    (id)   |           |    Vars  Clauses Literals |    Limit  Clauses Lit/Cl |  (clauses by restart)      |           |
 =======================================================================================================================
|         2 |       100 |  138903  4677626 13897937 |  1715543      117     49 |           0  -          17 |  0.010 %  |
|         1 |       100 |  138903  4677626 13897937 |  1715543      125     55 |           0  -          25 |  0.010 %  |
|         0 |       100 |  138903  4677626 13897937 |  1715129      147    445 |           0  -          47 |  0.010 %  |
|         1 |       250 |  138903  4677626 13897937 |  1887097      287    109 |           0  -          37 |  0.010 %  |
|         3 |       100 |  138903  4677626 13897937 |  1715543      137     41 |           0  -          37 |  0.010 %  |
|         2 |       250 |  138903  4677626 13897937 |  1887097      320     74 |           0  -          70 |  0.010 %  |
|         1 |       475 |  138903  4677626 13897937 |  2075807      523     86 |           0  -          48 |  0.010 %  |
|         3 |       250 |  138903  4677626 13897937 |  1887097      338     46 |           0  -          88 |  0.010 %  |
|         1 |       812 |  138903  4677626 13897937 |  2283388      883     69 |           0  -          71 |  0.010 %  |
|         2 |       475 |  138903  4677626 13897937 |  2075807      561     75 |           0  -          86 |  0.010 %  |
|         1 |      1318 |  138903  4677626 13897937 |  2511727     1462     57 |           0  -         144 |  0.010 %  |
|         2 |       812 |  138903  4677626 13897937 |  2283388      965     78 |           0  -         153 |  0.010 %  |
|         3 |       475 |  138903  4677626 13897937 |  2075807      628     46 |           0  -         153 |  0.010 %  |
|         0 |       250 |  138903  4677626 13897937 |  1886642      488    220 |           0  -         238 |  0.010 %  |
|         3 |       812 |  138903  4677626 13897937 |  2283388     1017     60 |           0  -         205 |  0.010 %  |
|         0 |       475 |  138903  4677626 13897937 |  2075306      766    146 |           0  -         291 |  0.010 %  |
|         2 |      1318 |  138903  4677626 13897937 |  2511727     1736     61 |           0  -         418 |  0.010 %  |
|         3 |      1318 |  138903  4677626 13897937 |  2511727     1851     51 |           0  -         533 |  0.010 %  |
|         1 |      2077 |  138903  4677626 13897937 |  2762899     2484     55 |           0  -         407 |  0.010 %  |
|         2 |      2077 |  138903  4677626 13897937 |  2762899     2587     67 |           0  -         510 |  0.010 %  |
|         0 |       812 |  138903  4677626 13897937 |  2282837     1217    122 |           0  -         405 |  0.010 %  |
 =======================================================================================================================
 -----------------------------------------------------------------------------------------------------------------------
| ManySAT 2.2 - all threads statistics           DETERMINISTIC MODE ? N              initial limit export clauses :  10 |
|-----------------------------------------------------------------------------------------------------------------------|
|  Thread  | winner  |   #restarts   |   decisions   |  #conflicts   |   % shared cls  |  #extra units | #extra clauses |         
|----------|---------|---------------|---------------|---------------|-----------------|---------------|----------------|
|        0 |       x |             5 |        102783 |          1023 |            43 % |             0 |            443 |
|        1 |         |             7 |        145030 |          2651 |            18 % |             0 |            487 |
|        2 |         |             7 |        174687 |          2713 |            21 % |             0 |            570 |
|        3 |         |             6 |        156817 |          1828 |            30 % |             0 |            561 |
|----------------------------------------------------|---------------|-----------------|---------------|----------------|
|                                                    |          8215 |            25 % |             0 |           2061 |
 -----------------------------------------------------------------------------------------------------------------------
 DETERMINISTIC_MODE? : NO 
 CONTROL POLICY?	 : STATIC (fixed Limit Export Clauses)  
 LIMIT EXPORT CLAUSES (PAIRWISE) : [identity] x 10

  ----------------------------------------         
   winner:  more statistics           
  ----------------------------------------         
  restarts              : 5
  conflicts             : 1023           (140 /sec)
  decisions             : 102783         (1.57 % random) (14067 /sec)
  propagations          : 5731158        (784350 /sec)
  conflict literals     : 179214         (18.52 % deleted)
  Memory used           : 860.00 MB
  CPU time              : 7.30689 s

SATISFIABLE
